GLPSOL: GLPK LP/MIP Solver, v4.55
Parameter(s) specified in the command line:
 -m tmp.mod
Reading model section from tmp.mod...
Reading data section from tmp.mod...
4913 lines were read
Generating obj...
Generating kirhoff...
Generating init_charge...
Generating batt_size...
Model has been successfully generated
GLPK Simplex Optimizer, v4.55
5306 rows, 8797 columns, 19178 non-zeros
Preprocessing...
4255 rows, 8596 columns, 18679 non-zeros
Scaling...
 A: min|aij| =  1.000e+00  max|aij| =  1.000e+00  ratio =  1.000e+00
Problem data seem to be well scaled
Constructing initial basis...
Size of triangular part is 3773
      0: obj =   0.000000000e+00  infeas =  1.769e+03 (482)
    500: obj =   0.000000000e+00  infeas =  1.616e+03 (368)
   1000: obj =   7.000000000e+01  infeas =  5.840e+02 (242)
   1500: obj =   2.600000000e+02  infeas =  1.090e+02 (231)
*  1657: obj =   3.560000000e+02  infeas =  0.000e+00 (229)
*  2000: obj =   2.240000000e+02  infeas =  0.000e+00 (227)
*  2331: obj =   1.400000000e+02  infeas =  0.000e+00 (226)
OPTIMAL LP SOLUTION FOUND
Time used:   0.7 secs
Memory used: 17.0 Mb (17828237 bytes)
#OUTPUT:
140
-20 -16 -6 -53 0 -6 0 0 0 0 0 -9 -54 0 0 2 0 -7 -11 0 4 0 0 0 0 -34 0 0 0 -39 0 -19 2 0 0 0 0 0 0 0 0 0 0 7 0 0 0 0 0 0 -2 0 -4 0 0 -6 0 15 0 0 0 0 0 0 0 0 0 0 0 0 0 -4 0 0 -2 0 0 0 0 0 15 0 5 0 0 0 0 -2 0 0 0 0 0 0 0 0 0 0 0 0 0 0 0 0 0 0 0 0 0 0 0 -9 0 0 0 0 0 0 0 0 0 0 0 2 0 -7 0 0 0 0 0 0 0 15 0 0 0 0 0 0 0 0 0 -7 0 0 0 0 0 0 0 0 0 0 0 0 -6 0 0 0 0 0 0 0 0 0 0 0 -2 0 0 0 0 0 0 2 0 0 0 15 0 15 0 0 0 0 0 0 0 0 -39 0 0 0 0 0 0 0 0 2 0 0 0 0 0 -9 -15 0 0 0 0 0 0 0 0 0 0 0 0 0 0 0 0 0 0 -39 0 0 0 0 0 0 0 0 0 0 0 0 -15 0 0 0 0 0 0 0 -5 0 0 0 0 0 0 0 0 0 0 0 0 0 0 0 0 0 0 0 -2 0 0 0 0 0 0 0 0 0 0 0 0 0 0 0 0 0 0 0 0 0 0 0 0 0 0 0 0 0 -2 0 0 0 0 -2 0 0 -2 -15 0 0 0 0 0 0 0 0 0 0 0 0 0 0 0 0 0 0 0 0 0 0 0 0 0 0 0 0 0 0 0 0 0 -2 0 2 0 0 0 0 0 0 0 0 0 0 0 0 0 0 0 0 0 0 2 0 0 0 0 0 0 0 0 0 0 0 0 0 0 0 0 0 0 0 0 0 -9 -2 0 0 39 0 0 0 0 0 0 0 0 4 0 0 2 0 0 0 -2 0 0 0 7 0 0 0 0 2 0 0 0 0 0 0 0 0 0 0 0 0 0 15 0 5 0 0 0 0 0 0 2 0 0 0 0 0 0 15 0 2 2 0 0 0 0 0 15 0 0 39 -39 0 0 0 0 0 0 0 0 0 0 0 0 0 0 0 0 0 0 0 0 0 0 0 0 0 0 0 -15 2 -39 0 0 0 0 0 0 0 0 0 0 0 0 0 0 0 0 0 0 0 0 0 0 0 0 0 0 0 0 0 0 0 0 0 0 0 0 0 0 0 0 0 0 0 0 0 0 0 0 0 0 0 0 0 0 
0 0 2 -1 -1 2 0 1 0 2 1 0 -28 0 0 0 0 0 0 0 0 0 -2 0 0 0 1 0 0 0 0 -1 3 0 0 0 0 0 0 0 -5 0 0 0 0 0 0 0 -2 0 -2 4 0 0 0 0 0 0 0 0 0 0 0 0 0 0 0 0 0 1 0 5 0 0 -2 0 0 1 0 0 0 0 0 0 -4 -1 -25 -2 0 0 0 0 0 0 0 0 0 0 0 0 0 0 -7 0 0 0 0 0 -25 0 0 0 0 0 0 0 0 0 0 0 0 0 0 3 0 -41 0 0 0 0 0 -1 0 0 0 0 0 0 0 0 0 0 0 0 0 9 0 1 0 0 0 0 0 0 4 0 0 0 -1 0 0 0 0 0 0 0 0 0 0 -27 0 0 0 0 0 0 0 0 -25 0 0 0 0 0 0 0 0 0 0 0 0 0 0 0 0 0 0 0 0 0 0 0 -9 0 0 0 -28 0 0 0 0 0 0 0 0 0 0 0 0 0 0 0 0 0 0 1 0 0 0 0 0 0 0 0 0 0 0 0 0 0 -1 0 0 0 0 0 -35 0 0 0 0 0 0 0 0 0 0 0 0 0 0 0 0 0 -2 0 -6 0 0 0 0 0 0 0 0 0 0 0 0 0 0 0 0 0 0 0 0 -1 0 0 0 0 0 0 0 0 -3 0 0 0 0 0 0 0 -1 -20 0 0 0 0 0 0 0 0 0 0 0 0 0 0 0 0 0 0 0 -2 0 0 1 0 0 0 0 0 9 0 0 0 0 -2 0 2 0 0 0 0 0 0 0 0 0 0 0 0 0 0 0 0 0 0 2 0 0 0 0 0 0 0 0 0 0 0 0 0 0 0 0 0 0 0 0 0 0 -2 0 0 0 0 0 0 0 0 0 0 0 0 0 -35 2 -2 4 2 -1 0 0 0 0 0 0 0 0 0 0 0 0 0 0 8 0 0 0 0 0 0 0 0 35 0 0 0 0 0 0 0 2 4 0 0 0 0 0 0 0 3 0 0 0 -1 0 20 0 0 0 1 -1 2 0 -1 -1 1 0 -9 0 0 0 0 0 0 0 0 0 0 0 0 0 0 0 0 0 0 0 0 0 2 0 0 0 0 0 0 0 0 0 0 0 0 0 0 0 0 0 0 0 0 0 0 0 0 0 0 0 0 0 0 0 0 0 0 0 0 0 0 0 0 0 0 0 0 0 0 0 0 0 0 0 0 0 0 0 
0 0 0 -24 -2 0 0 0 0 0 0 0 -1 0 0 0 0 0 0 0 0 0 0 0 0 -13 0 0 0 -1 0 -7 -2 0 0 0 0 0 0 0 0 0 0 0 0 0 0 0 0 0 0 0 0 0 0 -1 0 0 -2 0 0 0 0 0 0 0 0 0 0 0 0 0 0 0 2 0 0 0 0 -2 0 0 0 0 0 -4 -2 2 0 0 0 0 0 0 0 0 0 0 0 0 0 0 0 0 0 0 0 0 -10 0 0 2 0 0 0 0 0 0 0 0 0 0 0 -2 0 0 0 0 -2 0 0 -4 0 0 0 0 0 0 0 0 0 0 0 0 0 10 0 0 0 0 0 0 0 0 0 0 -1 0 0 0 0 0 0 0 0 0 0 0 2 0 0 0 0 0 0 0 0 0 -12 0 0 0 0 0 0 0 0 0 8 0 -1 0 0 0 0 0 0 0 0 0 0 0 -4 0 0 2 0 0 0 0 0 0 0 0 0 0 0 -2 -2 0 0 0 0 0 0 0 0 0 0 0 0 0 0 0 0 0 0 0 0 0 0 0 0 0 0 0 0 0 2 0 0 0 0 0 0 0 0 0 0 0 2 0 0 0 0 0 0 0 -2 0 0 0 0 0 0 0 0 0 -13 0 0 0 0 0 0 0 0 0 0 0 0 0 0 0 0 0 0 0 0 0 0 0 0 0 0 0 0 0 0 0 0 0 0 2 0 0 0 1 0 0 0 0 0 0 0 0 0 0 0 0 0 0 0 2 10 0 0 0 0 0 -2 0 0 0 0 0 0 0 0 0 0 0 0 0 0 0 0 0 0 0 0 0 0 0 0 0 0 0 0 0 0 0 0 0 0 0 0 0 0 0 0 0 0 0 0 0 1 0 -13 0 0 0 0 0 0 0 0 0 -2 0 0 0 0 0 0 0 0 0 0 0 0 -2 0 0 0 -5 0 0 0 0 2 0 0 0 0 0 0 0 0 0 2 0 0 0 0 0 0 2 0 0 0 0 0 0 0 0 0 0 0 0 0 0 0 0 -1 0 0 0 -2 0 -1 -9 0 0 2 0 0 6 0 0 0 0 0 0 0 0 0 0 0 0 0 0 0 0 -1 0 0 7 0 6 0 0 0 0 0 0 0 0 0 0 0 0 0 0 0 0 0 0 0 0 0 0 0 0 0 0 0 0 0 0 0 0 0 0 0 0 0 0 0 0 0 0 0 0 0 0 0 0 0 
-17 -11 -6 -53 -2 -2 -2 0 0 0 5 -4 -48 0 -2 -2 -4 -7 -2 0 0 -3 -2 0 0 -48 -6 3 0 -48 -7 -3 -7 -2 1 13 1 0 1 0 0 1 -2 -49 -1 11 0 0 -2 0 -2 0 0 -3 0 0 0 -3 0 -2 0 0 1 0 0 -2 1 2 5 0 0 -5 0 0 0 -3 0 0 0 0 0 2 -2 0 0 -3 -6 1 0 0 4 0 0 -2 2 0 0 0 0 0 0 0 1 0 0 0 3 0 18 0 0 0 0 2 0 2 1 0 3 -3 0 0 0 -7 0 0 0 1 -2 0 0 -3 1 0 0 0 0 0 -1 0 0 0 0 -7 0 -2 0 0 0 0 0 0 -4 -1 0 -1 0 0 4 0 -1 0 0 0 -1 0 0 0 0 0 -1 0 0 0 0 0 0 0 6 0 0 0 0 0 2 4 0 2 -24 0 -33 0 0 0 0 0 1 0 0 0 -1 0 -3 0 0 0 0 2 0 0 0 0 0 0 0 -4 0 0 -14 0 0 0 0 0 1 23 0 -1 0 0 0 0 -2 2 12 0 0 0 0 0 0 0 0 0 0 0 0 -12 0 0 0 0 0 0 0 3 0 0 0 0 11 0 0 -1 -2 0 0 1 -14 -56 0 0 0 0 0 0 1 0 -19 0 0 0 -2 -56 0 0 0 0 0 0 0 0 0 0 0 0 -7 0 0 0 0 0 0 0 0 0 0 0 0 0 0 0 0 0 0 0 0 10 0 0 0 0 0 -9 0 -2 0 6 0 0 0 0 0 0 10 0 0 0 0 0 -2 0 0 0 0 0 -3 0 0 0 0 0 0 0 -2 0 0 0 0 0 0 0 0 0 0 0 2 0 0 0 0 -1 0 0 0 0 0 0 0 0 0 0 0 0 0 0 33 0 -19 0 0 0 0 0 0 0 0 -7 0 0 0 -1 0 3 -1 0 -49 0 0 1 -6 0 1 0 0 3 0 0 0 4 0 -1 0 -2 0 0 0 0 12 0 0 -3 0 1 0 0 -1 -46 0 0 0 0 -9 7 0 0 0 0 0 0 0 0 0 23 -33 2 -6 0 0 0 -10 0 0 0 11 -9 0 22 3 0 0 2 0 0 -3 1 0 1 0 0 0 0 0 0 -33 -4 4 -3 0 22 0 0 0 0 0 0 0 0 0 0 0 0 0 0 0 0 0 0 0 0 0 0 0 0 0 0 0 0 0 0 0 0 0 0 0 0 0 0 0 0 0 0 0 0 0 0 0 0 0 
-3 0 0 -51 -3 0 0 0 0 0 0 0 0 0 0 0 0 0 0 0 0 0 0 0 0 -19 0 3 0 0 0 -15 -3 0 0 0 0 0 0 0 0 0 0 0 0 0 0 0 0 0 0 0 0 -3 0 -12 0 0 0 0 0 0 0 0 0 0 0 0 0 0 0 0 0 0 0 0 0 0 0 0 0 0 0 0 0 -4 0 0 0 0 0 0 0 0 0 0 0 0 0 0 0 0 -1 0 0 0 3 0 -3 0 0 0 0 0 0 0 0 0 3 0 0 0 0 -3 0 0 0 0 0 0 0 -4 0 0 0 0 0 0 0 0 2 0 0 0 0 10 0 0 0 0 0 0 0 0 0 0 -2 0 0 0 -3 0 0 0 0 0 0 0 1 -27 0 -14 0 0 0 -2 0 0 -3 0 0 0 0 0 0 0 0 0 3 0 0 0 0 0 0 0 0 0 0 -2 0 0 0 0 0 0 0 0 0 0 0 0 0 0 0 0 0 0 -3 0 0 0 0 0 0 -10 0 0 0 5 0 0 0 0 0 0 0 0 0 0 0 0 5 0 0 0 0 0 0 0 0 0 2 0 0 3 0 0 0 0 0 0 0 0 0 0 0 0 -3 0 0 0 0 0 0 0 0 0 0 0 0 0 0 0 0 0 0 0 0 0 0 0 0 0 0 0 0 0 0 0 0 2 0 0 -6 -4 0 0 0 0 0 0 0 2 0 0 0 10 0 0 0 0 0 0 0 0 0 3 0 0 0 0 0 2 10 0 0 0 0 -2 0 2 0 0 0 0 0 0 0 0 0 0 0 0 0 0 0 0 0 0 2 0 0 0 0 0 0 0 0 0 0 0 0 0 0 0 0 0 0 0 0 0 0 -2 0 0 0 0 0 0 0 0 -14 0 0 0 0 0 0 0 0 1 -6 0 0 0 0 0 0 8 -3 -1 0 0 0 0 0 -4 0 0 0 0 0 0 0 0 0 0 0 0 0 -3 0 0 0 0 0 3 0 0 -14 0 0 0 -2 0 0 4 0 4 0 0 0 -10 0 0 -3 0 -3 1 -10 0 0 0 0 0 0 0 0 0 0 0 0 0 0 0 0 0 0 0 0 0 0 2 0 0 0 0 0 0 0 14 0 0 0 0 0 0 0 0 0 0 0 0 0 0 0 0 0 0 0 0 0 0 0 0 0 0 0 0 0 0 0 0 0 0 0 0 0 0 0 0 0 0 0 0 0 0 0 
-11 -2 -6 -53 -3 -6 -4 0 -6 10 10 -2 -18 0 2 0 9 0 0 0 2 0 0 -2 -2 0 5 0 0 -8 0 -37 5 0 0 2 0 0 0 2 -1 0 0 0 -1 0 0 -3 0 1 0 0 -2 0 -16 0 0 0 2 0 0 0 0 0 2 0 0 0 5 0 0 -5 0 0 0 0 0 0 0 2 1 -1 0 0 0 1 0 0 0 0 0 0 0 3 -1 0 0 0 1 0 0 0 -1 0 0 1 0 0 0 1 0 0 0 0 0 0 0 0 0 0 0 0 0 5 0 0 0 0 0 0 0 1 0 1 0 0 0 0 -23 0 0 0 0 0 0 0 0 0 0 -1 0 0 9 1 0 0 0 -24 -1 0 -1 0 0 0 0 0 1 0 0 0 0 0 0 0 0 0 0 0 0 35 0 2 0 0 1 0 0 0 0 0 -8 0 0 0 0 0 0 0 0 0 0 0 0 0 0 0 -10 0 0 0 0 0 0 0 0 9 0 2 0 0 0 0 0 0 0 0 0 0 0 -1 0 0 3 0 0 0 0 0 -35 0 8 0 -1 0 0 0 0 0 0 0 0 0 0 0 0 0 0 0 0 0 0 0 0 0 0 0 0 0 0 0 0 0 0 -16 0 0 0 0 0 0 0 0 3 0 2 0 0 8 0 0 0 0 0 0 0 0 -5 0 0 0 0 0 0 0 0 -9 0 0 0 0 0 0 0 0 0 0 0 0 0 0 0 0 0 0 0 0 0 6 0 0 0 0 0 0 0 -1 0 0 0 0 0 0 0 0 0 0 0 0 0 0 0 0 0 0 0 0 0 0 0 0 0 0 0 0 0 0 1 0 0 0 0 0 0 0 0 0 0 0 0 0 0 0 2 0 0 0 8 0 0 0 0 0 2 0 0 2 0 0 0 0 -1 0 0 0 0 0 0 0 1 0 -7 0 0 0 0 0 0 1 0 -9 -2 0 0 0 0 35 0 0 0 0 0 0 0 0 0 0 0 0 0 -3 0 2 0 5 0 0 0 0 6 1 2 0 0 0 0 0 -6 0 1 -1 0 0 1 0 0 0 0 0 0 0 0 0 0 0 -1 0 0 0 0 0 0 0 -2 0 -8 0 0 0 0 0 0 -2 0 0 0 0 0 0 0 0 0 0 0 0 0 0 0 0 0 0 0 0 0 0 0 0 0 0 0 0 0 0 0 0 0 0 0 0 0 0 0 0 0 0 0 0 0 0 0 
-19 -7 -6 -53 0 -2 0 0 0 1 -10 -6 -43 0 0 0 9 -1 -4 0 0 0 0 -2 -2 -19 6 0 0 -9 4 -32 7 -4 0 -16 -4 0 0 0 0 0 -1 0 -1 -14 0 0 0 -2 -2 0 0 0 0 -37 0 28 0 -1 0 0 -1 0 0 -1 -1 0 5 0 0 0 0 0 0 0 0 0 0 0 21 -44 -2 0 0 9 -10 -2 0 0 4 0 0 0 54 0 0 0 2 0 0 0 0 0 0 0 0 0 -25 0 0 0 0 0 0 0 0 0 0 0 0 0 0 7 0 -31 0 0 -2 0 0 4 0 21 0 0 0 0 0 0 -3 -53 0 -1 0 20 0 0 0 0 0 0 9 0 0 0 6 0 0 0 0 -4 0 0 -4 0 2 0 -2 -2 -1 0 0 0 0 2 0 0 -46 0 0 21 0 0 -2 4 0 0 15 0 -9 0 0 0 0 0 -1 0 0 2 0 0 -1 0 0 0 -31 0 0 0 -5 0 0 0 0 9 0 0 0 0 0 0 0 0 0 0 0 0 0 0 0 0 0 0 -14 0 0 0 0 0 9 0 0 0 0 0 -31 17 6 0 0 0 -3 0 0 0 0 0 0 0 20 0 -4 0 -2 0 0 0 0 0 0 0 0 0 0 0 7 0 -19 0 0 -3 0 0 0 0 0 9 0 0 0 0 0 0 -4 0 -7 0 0 0 0 -2 0 0 0 -23 0 0 0 0 0 0 0 0 0 0 0 0 0 0 0 0 0 -18 0 -2 0 5 0 0 0 0 -3 0 3 0 0 0 0 0 -2 0 0 -5 0 0 0 0 0 -3 0 0 0 0 0 0 0 0 0 0 0 0 -3 0 0 0 -2 0 0 0 0 -4 0 0 0 0 0 0 0 0 0 0 0 0 0 0 9 0 -19 0 -3 0 0 0 0 0 -2 -19 0 0 0 0 0 0 0 0 1 0 0 0 -7 -1 1 0 0 -2 0 8 0 -9 0 0 0 0 0 0 23 8 -17 -3 6 0 4 0 0 0 0 0 3 0 0 21 -14 7 2 0 0 0 0 2 21 0 0 0 0 2 -5 0 0 0 0 -3 0 0 20 -18 5 15 0 0 0 0 0 0 7 -5 0 7 -3 0 0 0 0 0 -9 -4 4 4 0 15 3 0 0 0 0 0 0 0 0 0 0 0 0 0 0 0 0 0 0 0 0 0 0 0 0 0 0 0 0 0 0 0 0 0 0 0 0 0 0 0 0 0 0 0 0 0 0 0 0 
#OUTPUT END
Model has been successfully processed
